0 0 0 0
0 1 0 0
0 2 2 13
0 3 0 0
0 4 0 5
0 5 0 5
0 6 0 6
0 7 1 5
0 8 0 6
0 9 1 11
0 10 1 11
0 11 2 11
0 12 0 14
0 13 2 14
0 14 0 8
0 15 0 20
0 16 0 15
0 17 0 15
0 18 1 17
0 19 0 15
0 20 0 20
0 21 0 15
0 22 0 15
0 23 1 23
0 24 0 21
0 25 1 17
0 26 0 21
0 27 1 20
0 28 2 27
0 29 0 29
0 30 0 29
0 31 0 35
